p edge 135 134 58
e 1 21
e 1 35
e 1 106
e 1 108
e 1 97
e 1 50
e 2 55
e 2 68
e 2 71
e 3 7
e 3 124
e 3 95
e 3 77
e 3 69
e 4 52
e 4 99
e 5 11
e 5 71
e 6 42
e 6 71
e 6 122
e 7 33
e 7 87
e 8 16
e 8 103
e 8 106
e 9 36
e 9 84
e 10 101
e 10 50
e 11 94
e 12 14
e 12 65
e 12 80
e 12 130
e 12 41
e 13 63
e 13 48
e 13 130
e 15 109
e 15 60
e 17 36
e 18 94
e 19 96
e 19 90
e 20 56
e 20 64
e 22 32
e 23 64
e 24 29
e 24 130
e 25 120
e 26 84
e 26 44
e 27 85
e 27 129
e 27 92
e 28 74
e 30 59
e 30 93
e 30 77
e 31 76
e 31 34
e 32 66
e 32 119
e 34 57
e 36 61
e 36 128
e 37 72
e 37 64
e 38 110
e 39 123
e 39 116
e 40 134
e 40 67
e 41 74
e 41 71
e 42 110
e 43 78
e 43 105
e 44 92
e 44 97
e 45 131
e 46 111
e 47 80
e 48 115
e 49 105
e 49 95
e 50 83
e 51 102
e 51 100
e 52 125
e 52 82
e 52 132
e 53 83
e 53 94
e 54 105
e 57 101
e 58 122
e 58 134
e 60 82
e 62 98
e 64 85
e 66 73
e 66 69
e 67 77
e 70 130
e 75 129
e 76 86
e 76 127
e 78 133
e 79 89
e 81 121
e 82 131
e 83 88
e 84 91
e 85 104
e 89 113
e 90 119
e 98 124
e 99 130
e 100 107
e 100 112
e 102 116
e 104 111
e 104 118
e 109 120
e 112 128
e 113 135
e 114 132
e 117 121
e 119 135
e 121 126
e 121 127
